NAME : sim81.97048.tour
COMMENT : Length = 97048
COMMENT : Found by LKH [Keld Helsgaun] Fri Sep 14 20:52:18 2018
TYPE : TOUR
DIMENSION : 81
TOUR_SECTION
1
4
56
37
47
14
29
6
33
62
39
74
59
13
79
5
3
53
7
73
19
44
78
60
10
38
34
32
71
12
63
64
81
76
11
67
42
70
77
72
61
31
27
52
16
40
80
69
50
36
30
51
48
2
21
66
15
24
43
8
22
75
49
46
18
54
57
55
68
58
9
28
65
26
20
25
35
23
41
45
17
-1
EOF
